(set-logic HORN)
(declare-datatypes ((Nat_0 0)) (((Z_2 ) (Z_3 (unS_0 Nat_0)))))
(declare-fun diseqNat_0 (Nat_0 Nat_0) Bool)
(declare-fun add_0 (Nat_0 Nat_0 Nat_0) Bool)
(declare-fun minus_0 (Nat_0 Nat_0 Nat_0) Bool)
(declare-fun ge_0 (Nat_0 Nat_0) Bool)
(declare-fun lt_0 (Nat_0 Nat_0) Bool)
(declare-fun mod_0 (Nat_0 Nat_0 Nat_0) Bool)
(declare-datatypes ((pair_0 0)) (((pair_1 (projpair_0 Nat_0) (projpair_1 Nat_0)))))
(declare-datatypes ((list_0 0)) (((nil_0 ) (cons_0 (head_0 Nat_0) (tail_0 list_0)))))
(declare-fun diseqlist_0 (list_0 list_0) Bool)
(declare-datatypes ((list_1 0)) (((nil_1 ) (cons_1 (head_1 pair_0) (tail_1 list_1)))))
(declare-fun unpair_0 (list_0 list_1) Bool)
(declare-fun pairs_0 (list_1 list_0) Bool)
(declare-fun length_0 (Nat_0 list_0) Bool)
(assert (forall ((x_23 Nat_0))
	(diseqNat_0 Z_2 (Z_3 x_23))))
(assert (forall ((x_24 Nat_0))
	(diseqNat_0 (Z_3 x_24) Z_2)))
(assert (forall ((x_25 Nat_0) (x_26 Nat_0))
	(=> (diseqNat_0 x_25 x_26) (diseqNat_0 (Z_3 x_25) (Z_3 x_26)))))
(assert (forall ((y_5 Nat_0))
	(add_0 y_5 Z_2 y_5)))
(assert (forall ((r_0 Nat_0) (x_16 Nat_0) (y_5 Nat_0))
	(=> (add_0 r_0 x_16 y_5) (add_0 (Z_3 r_0) (Z_3 x_16) y_5))))
(assert (forall ((y_5 Nat_0))
	(minus_0 Z_2 Z_2 y_5)))
(assert (forall ((r_0 Nat_0) (x_16 Nat_0) (y_5 Nat_0))
	(=> (minus_0 r_0 x_16 y_5) (minus_0 (Z_3 r_0) (Z_3 x_16) y_5))))
(assert (forall ((y_5 Nat_0))
	(ge_0 y_5 Z_2)))
(assert (forall ((x_16 Nat_0) (y_5 Nat_0))
	(=> (ge_0 x_16 y_5) (ge_0 (Z_3 x_16) (Z_3 y_5)))))
(assert (forall ((y_5 Nat_0))
	(lt_0 Z_2 (Z_3 y_5))))
(assert (forall ((x_16 Nat_0) (y_5 Nat_0))
	(=> (lt_0 x_16 y_5) (lt_0 (Z_3 x_16) (Z_3 y_5)))))
(assert (forall ((x_16 Nat_0) (y_5 Nat_0))
	(=> (lt_0 x_16 y_5) (mod_0 x_16 x_16 y_5))))
(assert (forall ((r_0 Nat_0) (x_16 Nat_0) (y_5 Nat_0) (z_4 Nat_0))
	(=> (and (ge_0 x_16 y_5) (minus_0 z_4 x_16 y_5) (mod_0 r_0 z_4 y_5)) (mod_0 r_0 x_16 y_5))))
(assert (forall ((x_42 Nat_0) (x_43 list_0))
	(diseqlist_0 nil_0 (cons_0 x_42 x_43))))
(assert (forall ((x_44 Nat_0) (x_45 list_0))
	(diseqlist_0 (cons_0 x_44 x_45) nil_0)))
(assert (forall ((x_46 Nat_0) (x_47 list_0) (x_48 Nat_0) (x_49 list_0))
	(=> (diseqNat_0 x_46 x_48) (diseqlist_0 (cons_0 x_46 x_47) (cons_0 x_48 x_49)))))
(assert (forall ((x_46 Nat_0) (x_47 list_0) (x_48 Nat_0) (x_49 list_0))
	(=> (diseqlist_0 x_47 x_49) (diseqlist_0 (cons_0 x_46 x_47) (cons_0 x_48 x_49)))))
(assert (forall ((x_4 list_0) (z_0 Nat_0) (y_1 Nat_0) (xys_0 list_1))
	(=> (unpair_0 x_4 xys_0) (unpair_0 (cons_0 z_0 (cons_0 y_1 x_4)) (cons_1 (pair_1 z_0 y_1) xys_0)))))
(assert (unpair_0 nil_0 nil_1))
(assert (forall ((x_7 list_1) (y_3 Nat_0) (xs_0 list_0) (y_2 Nat_0))
	(=> (pairs_0 x_7 xs_0) (pairs_0 (cons_1 (pair_1 y_2 y_3) x_7) (cons_0 y_2 (cons_0 y_3 xs_0))))))
(assert (forall ((y_2 Nat_0))
	(pairs_0 nil_1 (cons_0 y_2 nil_0))))
(assert (pairs_0 nil_1 nil_0))
(assert (forall ((x_10 Nat_0) (x_11 Nat_0) (y_4 Nat_0) (l_0 list_0))
	(=> (and (length_0 x_11 l_0) (add_0 x_10 (Z_3 Z_2) x_11)) (length_0 x_10 (cons_0 y_4 l_0)))))
(assert (length_0 Z_2 nil_0))
(assert (forall ((x_15 Nat_0) (x_13 list_1) (x_14 list_0) (xs_1 list_0))
	(=> (and (diseqlist_0 x_14 xs_1) (length_0 x_15 xs_1) (pairs_0 x_13 xs_1) (unpair_0 x_14 x_13) (mod_0 Z_2 x_15 (Z_3 (Z_3 Z_2)))) false)))
(check-sat)
(get-model)
